
List of user-set options:

                                    Name   Value                used
                           compl_inf_tol = 1                     yes
                         constr_viol_tol = 1                     yes
                            dual_inf_tol = 1000                  yes
                           linear_solver = ma97                  yes
                              ma86_small = 1e-30                  no
                                  ma86_u = 0.0001                 no
                              ma97_order = best                  yes
                              ma97_small = 1e-30                 yes
                            ma97_switch1 = at_start              yes
                            ma97_switch2 = od_hd_reuse           yes
                                  ma97_u = 1e-06                 yes
                               ma97_umax = 0.5                   yes
                                max_iter = 1000                  yes
                    max_refinement_steps = 20                    yes
                    min_refinement_steps = 5                     yes
                                 mu_init = 1e-06                 yes
           mu_superlinear_decrease_power = 1.25                  yes
                   nlp_scaling_min_value = 1e-08                 yes
                        option_file_name = Preset_Case_512_pf.opt  yes
                             output_file = ./tmp/Preset_Case_512_pf.output  yes
                      print_user_options = yes                   yes
        required_infeasibility_reduction = 1                      no
                                     tol = 1e-08                 yes
                   warm_start_bound_frac = 1e-20                 yes
                   warm_start_bound_push = 1e-20                 yes
                   warm_start_init_point = yes                   yes
              warm_start_mult_bound_push = 1e-20                 yes
                warm_start_mult_init_max = 1e+40                 yes
             warm_start_slack_bound_frac = 1e-20                 yes
             warm_start_slack_bound_push = 1e-20                 yes

******************************************************************************
This program contains Ipopt, a library for large-scale nonlinear optimization.
 Ipopt is released as open source code under the Eclipse Public License (EPL).
         For more information visit http://projects.coin-or.org/Ipopt
******************************************************************************

This is Ipopt version 3.12.10, running with linear solver ma97.

Number of nonzeros in equality constraint Jacobian...:   123443
Number of nonzeros in inequality constraint Jacobian.:      213
Number of nonzeros in Lagrangian Hessian.............:    49069

Total number of variables............................:    31591
                     variables with only lower bounds:    12912
                variables with lower and upper bounds:    15130
                     variables with only upper bounds:        0
Total number of equality constraints.................:    31483
Total number of inequality constraints...............:       25
        inequality constraints with only lower bounds:        4
   inequality constraints with lower and upper bounds:        0
        inequality constraints with only upper bounds:       21

iter    objective    inf_pr   inf_du lg(mu)  ||d||  lg(rg) alpha_du alpha_pr  ls
   0 -5.4295053e+00 4.00e-03 1.02e+00  -6.0 0.00e+00    -  0.00e+00 0.00e+00   0
   1 -5.4344285e+00 8.53e+00 3.36e+01  -6.0 3.52e+05    -  9.08e-05 1.28e-03h  1
   2 -5.4343922e+00 8.53e+00 3.36e+01  -6.0 2.67e+03    -  1.06e-04 3.23e-05h  1
   3 -5.4295637e+00 8.52e+00 7.75e+01  -6.0 2.28e+04    -  8.57e-05 1.64e-03h  2
   4 -5.4289681e+00 8.51e+00 1.20e+02  -6.0 4.22e+03    -  2.36e-01 5.59e-04h  4
   5r-5.4289681e+00 8.51e+00 9.99e+02   0.9 0.00e+00    -  0.00e+00 4.58e-07R 16
   6r-5.6064602e+00 8.51e+00 2.22e+03   0.9 1.42e+05    -  1.64e-09 6.02e-08f  1
   7 -5.6241459e+00 8.51e+00 2.54e+03  -6.0 1.10e+06    -  8.80e-04 5.71e-04h  1
   8 -5.6277558e+00 8.51e+00 2.56e+03  -6.0 8.79e+05    -  2.80e-06 1.42e-04h  1
   9 -5.6247487e+00 8.51e+00 2.56e+03  -6.0 7.77e+05    -  7.15e-04 2.54e-04h  4
iter    objective    inf_pr   inf_du lg(mu)  ||d||  lg(rg) alpha_du alpha_pr  ls
  10 -5.6403158e+00 8.50e+00 2.65e+03  -6.0 2.76e+05    -  8.86e-05 1.06e-03h  1
  11 -5.6402571e+00 8.49e+00 2.64e+03  -6.0 3.46e+04    -  4.11e-03 2.59e-04h  7
  12 -5.6428492e+00 8.40e+00 2.19e+04  -6.0 3.71e+04    -  4.74e-03 1.31e-02h  1
  13 -5.7241588e+00 9.17e+01 5.08e+05  -6.0 8.23e+04    -  5.25e-03 3.05e-02h  1
  14 -5.7067157e+00 9.03e+01 4.97e+05  -6.0 5.09e+02  -4.0 2.56e-05 1.54e-02h  1
  15 -5.6654685e+00 8.68e+01 4.63e+05  -6.0 4.93e+02  -4.5 6.27e-02 3.83e-02h  1
  16 -5.6493788e+00 8.53e+01 4.53e+05  -6.0 4.76e+02  -5.0 4.72e-02 1.73e-02h  3
  17 -5.6445872e+00 8.48e+01 4.50e+05  -6.0 4.75e+02  -5.4 5.49e-02 6.20e-03h  4
  18 -5.6431782e+00 8.45e+01 4.48e+05  -6.0 5.65e+02  -5.9 1.55e-01 3.22e-03h  5
  19 -5.6425918e+00 8.45e+01 4.48e+05  -6.0 4.74e+02  -4.6 2.73e-03 6.58e-04h  4
iter    objective    inf_pr   inf_du lg(mu)  ||d||  lg(rg) alpha_du alpha_pr  ls
  20 -5.6422592e+00 8.45e+01 4.48e+05  -6.0 4.63e+02  -5.1 3.66e-03 3.99e-04h  7
  21 -5.6416436e+00 8.44e+01 4.47e+05  -6.0 4.35e+02  -4.6 4.50e-03 7.29e-04h  1
  22 -5.6148816e+00 8.16e+01 4.26e+05  -6.0 4.63e+02  -5.1 3.70e-05 3.25e-02h  1
  23 -5.6148951e+00 8.16e+01 4.26e+05  -6.0 2.94e+03  -5.6 1.60e-09 9.18e-05f  1
  24 -5.6151534e+00 8.16e+01 4.26e+05  -6.0 6.84e+03  -6.1 1.19e-09 9.26e-05f  1
  25 -5.6130761e+00 8.16e+01 4.26e+05  -6.0 2.99e+04  -6.5 9.45e-10 9.08e-05h  1
  26 -5.6134627e+00 8.16e+01 4.26e+05  -6.0 8.41e+03  -6.1 1.13e-09 9.23e-05f  1
  27 -5.6101461e+00 8.16e+01 4.27e+05  -6.0 4.67e+04  -6.6 7.60e-10 8.87e-05h  1
  28 -5.6107332e+00 8.16e+01 4.27e+05  -6.0 1.08e+04  -6.2 1.06e-09 9.18e-05f  1
  29 -5.6069246e+00 8.16e+01 4.27e+05  -6.0 1.11e+05  -6.6 4.38e-10 4.09e-05h  2
iter    objective    inf_pr   inf_du lg(mu)  ||d||  lg(rg) alpha_du alpha_pr  ls
  30 -5.6048123e+00 8.14e+01 4.26e+05  -6.0 4.21e+02  -4.4 1.36e-01 2.85e-03h  1
  31 -5.4441182e+00 6.35e+01 1.17e+05  -6.0 4.39e+02  -4.9 1.08e-03 2.20e-01h  1
  32 -5.4325890e+00 5.98e+01 1.07e+05  -6.0 3.17e+02  -4.5 3.07e-03 5.90e-02h  1
  33 -5.3913991e+00 3.55e+01 6.15e+04  -6.0 3.01e+02  -4.9 1.39e-03 4.06e-01h  1
  34 -5.3931144e+00 3.52e+01 6.09e+04  -6.0 1.50e+02  -5.4 2.91e-03 1.02e-02f  1
  35 -5.3951540e+00 3.51e+01 6.08e+04  -6.0 1.86e+02  -5.9 5.35e-06 2.93e-03f  1
  36 -5.4587339e+00 2.96e+01 5.42e+04  -6.0 3.17e+02  -6.4 1.20e-01 1.56e-01h  1
  37 -5.5072096e+00 2.60e+01 4.89e+04  -6.0 4.92e+02  -6.8 1.36e-01 1.21e-01h  1
  38 -5.5619497e+00 2.33e+01 4.42e+04  -6.0 9.94e+02  -7.3 1.09e-01 1.07e-01h  1
  39 -5.6061741e+00 2.16e+01 4.09e+04  -6.0 2.15e+03  -7.8 1.48e-01 7.61e-02h  1
iter    objective    inf_pr   inf_du lg(mu)  ||d||  lg(rg) alpha_du alpha_pr  ls
  40 -5.7217820e+00 2.20e+01 1.50e+05  -6.0 2.48e+03  -8.3 4.22e-01 2.46e-01h  1
  41 -5.8182932e+00 4.38e+01 5.66e+04  -6.0 8.05e+03    -  5.45e-02 2.14e-01h  1
  42 -5.8339178e+00 4.03e+01 2.85e+04  -6.0 4.60e+03    -  5.00e-02 8.76e-02h  1
  43 -5.8534544e+00 3.67e+01 1.34e+05  -6.0 4.48e+03    -  2.57e-02 9.02e-02h  1
  44 -5.8873372e+00 3.03e+01 4.11e+05  -6.0 2.11e+03    -  9.22e-02 1.89e-01h  1
  45 -5.9082741e+00 2.73e+01 2.22e+07  -6.0 2.20e+03    -  6.43e-04 1.51e-01h  1
  46 -5.9279003e+00 2.35e+01 1.83e+07  -6.0 1.31e+03    -  6.88e-02 1.74e-01h  1
  47 -5.9459800e+00 6.29e+01 1.33e+07  -6.0 5.73e+03    -  7.32e-02 2.74e-01h  1
  48 -5.9923240e+00 1.96e+01 3.62e+06  -6.0 5.47e+02    -  1.08e-05 7.28e-01h  1
  49 -6.0067292e+00 1.42e+01 4.91e+05  -6.0 8.99e+02    -  3.80e-01 8.64e-01h  1
iter    objective    inf_pr   inf_du lg(mu)  ||d||  lg(rg) alpha_du alpha_pr  ls
  50 -6.0104865e+00 1.29e+01 4.43e+05  -6.0 9.77e+02    -  1.04e-01 9.79e-02h  1
  51 -6.0249347e+00 8.58e+00 2.94e+05  -6.0 6.54e+02    -  8.84e-02 3.37e-01h  1
  52 -6.0249134e+00 8.58e+00 2.94e+05  -6.0 3.42e+02  -2.4 8.92e-06 2.46e-04h  1
  53 -6.0249889e+00 8.53e+00 2.92e+05  -6.0 6.12e+01  -2.0 1.64e-04 5.38e-03h  1
  54 -6.0111701e+00 6.21e+00 2.12e+05  -6.0 4.25e+02    -  4.96e-03 2.73e-01h  1
  55 -6.0105224e+00 5.99e+00 2.05e+05  -6.0 6.49e+00  -2.5 1.68e-02 3.49e-02h  1
  56 -6.0090787e+00 5.52e+00 1.89e+05  -6.0 6.38e+00  -3.0 3.50e-02 7.87e-02h  1
  57 -6.0034236e+00 4.10e+00 1.40e+05  -6.0 7.87e+00  -3.4 1.07e-03 2.56e-01h  1
  58 -6.0036150e+00 4.09e+00 1.40e+05  -6.0 1.06e+01  -1.2 1.45e-03 3.49e-03h  1
  59 -6.0038243e+00 4.09e+00 1.40e+05  -6.0 2.96e+02  -1.7 3.02e-05 9.23e-05h  1
iter    objective    inf_pr   inf_du lg(mu)  ||d||  lg(rg) alpha_du alpha_pr  ls
  60 -6.0038534e+00 4.09e+00 1.40e+05  -6.0 1.25e+01  -1.3 2.34e-03 3.00e-04h  1
  61 -6.0040667e+00 4.09e+00 1.40e+05  -6.0 1.27e+02  -1.7 3.51e-04 3.56e-04h  1
  62 -6.0041651e+00 4.08e+00 1.40e+05  -6.0 1.35e+01  -1.3 1.56e-03 1.88e-03f  1
  63 -6.0043058e+00 4.07e+00 1.39e+05  -6.0 3.13e+01  -1.8 2.97e-03 1.86e-03h  1
  64 -5.9829687e+00 2.13e+00 1.21e+05  -6.0 1.06e+01  -2.3 3.37e-04 4.77e-01h  1
  65 -5.9811471e+00 2.08e+00 1.18e+05  -6.0 2.15e+01  -2.7 2.80e-02 2.48e-02h  1
  66 -5.9790022e+00 2.07e+00 1.16e+05  -6.0 7.92e+01  -2.3 6.07e-03 3.58e-03h  1
  67 -5.9768065e+00 2.03e+00 1.15e+05  -6.0 7.72e+00  -1.9 9.06e-03 1.92e-02h  1
  68 -5.9727093e+00 2.02e+00 1.09e+05  -6.0 1.65e+02  -2.4 6.91e-03 3.52e-03h  1
  69 -5.9648670e+00 1.89e+00 1.03e+05  -6.0 7.88e+00  -1.9 4.21e-02 6.76e-02h  1
iter    objective    inf_pr   inf_du lg(mu)  ||d||  lg(rg) alpha_du alpha_pr  ls
  70 -5.9627787e+00 1.88e+00 9.90e+04  -6.0 6.50e+00  -1.5 8.83e-02 3.97e-03h  1
  71 -5.9520009e+00 1.81e+00 9.56e+04  -6.0 1.02e+01  -2.0 7.42e-03 3.40e-02h  1
  72 -5.9506076e+00 1.80e+00 9.51e+04  -6.0 3.72e+00  -1.6 1.12e-01 5.09e-03h  1
  73 -5.8691103e+00 1.62e+00 9.64e+04  -6.0 1.64e+01  -2.0 5.08e-03 1.02e-01h  1
  74 -5.8275528e+00 1.29e+00 7.56e+04  -6.0 2.64e+00  -1.6 1.77e-01 2.04e-01h  1
  75 -5.6644001e+00 6.97e-01 3.84e+04  -6.0 4.64e+00  -2.1 3.54e-01 4.60e-01h  1
  76 -5.7270149e+00 2.99e-01 1.58e+04  -6.0 1.87e+00  -2.6 5.32e-01 5.71e-01h  1
  77 -5.7912418e+00 2.64e-01 1.39e+04  -6.0 1.08e+01  -3.0 6.02e-02 1.18e-01h  1
  78 -5.8258000e+00 2.57e-01 1.46e+04  -6.0 3.95e+01  -3.5 1.61e-01 2.49e-02h  1
  79 -5.8770576e+00 2.31e-01 1.44e+04  -6.0 9.58e+00  -3.1 2.02e-01 1.04e-01h  1
iter    objective    inf_pr   inf_du lg(mu)  ||d||  lg(rg) alpha_du alpha_pr  ls
  80 -5.9291475e+00 2.04e-01 1.26e+04  -6.0 1.59e+01  -3.6 1.01e-01 1.17e-01h  1
  81 -5.9345194e+00 1.92e-01 1.02e+04  -6.0 2.56e+01  -4.1 6.85e-01 5.80e-02h  1
  82 -5.9560978e+00 7.24e-02 3.86e+03  -6.0 4.34e+00  -3.6 6.33e-01 6.22e-01h  1
  83 -5.9765465e+00 2.21e-02 1.36e+03  -6.0 2.78e+00  -4.1 1.00e+00 6.95e-01f  1
  84 -5.9861785e+00 7.82e-03 2.34e+02  -6.0 7.54e+00  -4.6 5.80e-01 8.30e-01f  1
  85 -5.9956472e+00 2.70e-02 1.59e+03  -6.0 1.80e+01  -5.1 1.27e-04 5.73e-01f  1
  86 -6.0084718e+00 1.48e-01 1.32e+03  -6.0 3.70e+01  -5.5 8.49e-01 7.02e-01h  1
  87 -6.0120052e+00 1.35e-01 1.19e+03  -6.0 6.13e+01  -6.0 1.73e-01 2.43e-01h  1
  88 -6.0280367e+00 3.15e+00 1.61e+03  -6.0 1.67e+03    -  4.24e-01 2.42e-01h  1
  89 -6.0286639e+00 3.74e+00 1.38e+03  -6.0 1.60e+03    -  3.88e-02 1.49e-01h  1
iter    objective    inf_pr   inf_du lg(mu)  ||d||  lg(rg) alpha_du alpha_pr  ls
  90 -6.0321590e+00 2.94e+00 1.14e+03  -6.0 1.09e+02  -6.5 5.24e-01 2.12e-01h  1
  91 -6.0413634e+00 7.03e-01 2.97e+03  -6.0 1.27e+02  -7.0 1.16e-01 7.61e-01h  1
  92 -6.0434154e+00 6.40e-01 3.39e+03  -6.0 5.11e+02  -7.4 3.48e-02 8.90e-02h  1
  93 -6.1020461e+00 5.55e+01 8.80e+03  -6.0 5.75e+03  -7.9 2.92e-02 3.39e-01h  1
  94 -6.0977908e+00 5.18e+01 6.61e+03  -6.0 9.11e+02  -7.5 1.53e-01 6.63e-02h  1
  95 -6.0757126e+00 4.66e+01 6.42e+03  -6.0 5.48e+03    -  6.90e-02 1.02e-01h  2
  96 -6.0626010e+00 4.11e+01 3.90e+03  -6.0 3.47e+03    -  2.11e-01 1.18e-01h  1
  97 -6.0566446e+00 2.39e+01 2.53e+05  -6.0 1.88e+02  -4.4 5.37e-03 4.20e-01h  1
  98 -6.0537708e+00 2.04e+01 2.52e+05  -6.0 2.66e+01  -4.8 2.33e-02 1.45e-01h  1
  99 -6.0532732e+00 1.99e+01 2.45e+05  -6.0 2.06e+01  -5.3 6.28e-07 2.53e-02h  1
iter    objective    inf_pr   inf_du lg(mu)  ||d||  lg(rg) alpha_du alpha_pr  ls
 100 -6.0350000e+00 2.76e-02 1.30e+02  -6.0 2.10e+01  -5.8 9.90e-02 1.00e+00h  1
 101 -6.0361427e+00 1.48e-02 6.95e+01  -6.0 2.94e+00  -4.5 8.15e-01 4.64e-01h  1
 102 -6.0394504e+00 6.08e-02 1.95e+01  -6.0 8.74e+00  -4.9 8.43e-01 1.00e+00f  1
 103 -6.0440746e+00 1.45e-01 3.01e+01  -6.0 2.55e+01  -5.4 1.00e+00 1.00e+00h  1
 104 -6.0570185e+00 2.91e-01 2.51e+01  -6.0 7.18e+01  -5.9 1.00e+00 1.00e+00h  1
 105 -6.0715696e+00 2.21e-01 3.51e+01  -6.0 1.80e+02  -6.4 1.00e+00 4.26e-01h  1
 106 -6.0964746e+00 1.12e+00 7.33e+03  -6.0 3.21e+04    -  6.36e-02 2.88e-02h  1
 107 -6.1024352e+00 1.08e+00 3.05e+04  -6.0 1.12e+03    -  1.92e-01 6.72e-02h  1
 108 -6.1181496e+00 1.22e+00 4.69e+03  -6.0 1.16e+03    -  8.62e-02 1.75e-01h  1
 109 -6.1309699e+00 1.78e+00 2.90e+05  -6.0 9.77e+02    -  1.00e+00 2.59e-01h  1
iter    objective    inf_pr   inf_du lg(mu)  ||d||  lg(rg) alpha_du alpha_pr  ls
 110 -6.1415637e+00 2.85e+00 1.32e+05  -6.0 8.08e+02    -  2.95e-01 3.91e-01h  1
 111r-6.1415637e+00 2.85e+00 1.00e+03   0.4 0.00e+00    -  0.00e+00 2.87e-07R  2
 112r-6.1469864e+00 2.85e+00 1.00e+03   0.4 1.45e+04    -  2.90e-06 9.78e-07f  1
 113 -6.1458913e+00 2.55e+00 1.23e+05  -6.0 5.76e+01    -  1.83e-01 1.07e-01h  1
 114 -6.1432922e+00 1.83e+00 5.69e+05  -6.0 7.49e+00    -  1.07e-01 2.81e-01h  1
 115 -6.1367567e+00 1.30e-03 8.69e+01  -6.0 3.81e+00    -  5.71e-01 1.00e+00h  1
 116 -6.1369549e+00 4.24e-04 4.18e+01  -6.0 5.96e-01    -  9.91e-01 6.75e-01h  1
 117 -6.1419346e+00 3.95e-02 2.15e+01  -6.0 4.73e+01    -  8.65e-01 1.00e+00f  1
 118 -6.1513359e+00 1.70e-01 3.14e+01  -6.0 1.30e+02    -  8.31e-01 4.93e-01h  1
 119 -6.1522018e+00 1.35e-01 1.57e+02  -6.0 1.55e+02    -  8.75e-01 2.48e-01h  1
iter    objective    inf_pr   inf_du lg(mu)  ||d||  lg(rg) alpha_du alpha_pr  ls
 120 -6.1564016e+00 1.37e+00 5.67e+01  -6.0 3.28e+02    -  9.42e-01 6.40e-01h  1
 121 -6.1603373e+00 1.23e+00 3.51e+02  -6.0 3.76e+02    -  6.02e-01 6.87e-01h  1
 122 -6.1635406e+00 1.14e+00 3.83e+02  -6.0 1.91e+03    -  1.01e-01 7.74e-02h  1
 123 -6.1743528e+00 1.52e+00 2.84e+02  -6.0 2.28e+02    -  9.85e-01 1.00e+00h  1
 124 -6.1785228e+00 1.20e+00 9.94e+03  -6.0 2.15e+02    -  4.58e-01 2.76e-01h  1
 125 -6.1936039e+00 1.29e+00 7.33e+02  -6.0 2.13e+02    -  1.00e+00 1.00e+00h  1
 126 -6.1996813e+00 9.90e-01 2.75e+04  -6.0 2.07e+02    -  4.53e-01 3.45e-01h  1
 127 -6.2165966e+00 1.34e+00 1.03e+05  -6.0 2.18e+02    -  7.42e-01 1.00e+00h  1
 128 -6.2204968e+00 1.19e+00 3.09e+04  -6.0 3.35e+02    -  2.74e-01 1.94e-01h  1
 129r-6.2204968e+00 1.19e+00 1.00e+03   0.1 0.00e+00    -  0.00e+00 1.63e-07R  2
iter    objective    inf_pr   inf_du lg(mu)  ||d||  lg(rg) alpha_du alpha_pr  ls
 130r-6.2312881e+00 1.19e+00 1.00e+03   0.1 1.14e+04    -  6.35e-06 1.55e-06f  1
 131 -6.2310098e+00 1.17e+00 7.66e+05  -6.0 1.05e+01    -  4.95e-01 2.05e-02h  1
 132 -6.2309892e+00 1.17e+00 3.53e+04  -6.0 1.14e+01    -  2.05e-02 1.79e-03h  1
 133 -6.2272250e+00 8.50e-01 2.57e+04  -6.0 1.12e+01    -  6.38e-02 2.71e-01h  1
 134 -6.2266541e+00 7.99e-01 2.42e+04  -6.0 8.81e+00    -  5.09e-01 5.98e-02h  1
 135 -6.2167213e+00 7.13e-03 3.24e+01  -6.0 9.26e+00    -  7.73e-01 1.00e+00h  1
 136 -6.2180122e+00 4.95e-03 8.43e+00  -6.0 4.12e+00    -  9.15e-01 1.00e+00h  1
 137 -6.2181948e+00 5.22e-03 1.08e+01  -6.0 1.78e+01    -  9.59e-01 1.67e-01h  1
 138 -6.2181882e+00 6.18e-04 3.85e-02  -6.0 2.72e+00  -5.0 9.98e-01 1.00e+00f  1
 139 -6.2222365e+00 4.48e-01 1.50e+01  -6.0 6.37e+02    -  2.82e-01 1.17e-01h  1
iter    objective    inf_pr   inf_du lg(mu)  ||d||  lg(rg) alpha_du alpha_pr  ls
 140 -6.2256782e+00 9.41e-01 1.26e+04  -6.0 3.05e+02    -  2.42e-02 3.46e-01H  1
 141 -6.2263445e+00 2.95e+00 4.95e+02  -6.0 5.78e+02    -  8.87e-01 1.00e+00f  1
 142 -6.2249075e+00 2.21e-01 2.55e+01  -6.0 9.02e+01    -  9.99e-01 1.00e+00h  1
 143 -6.2252370e+00 3.82e-01 7.30e+01  -6.0 2.35e+02    -  1.00e+00 1.00e+00h  1
 144 -6.2252109e+00 2.76e-01 5.05e+01  -6.0 1.83e+02    -  1.00e+00 5.00e-01h  2
 145 -6.2252211e+00 2.21e-01 3.79e+01  -6.0 1.72e+02    -  1.00e+00 5.23e-01h  1
 146 -6.2252791e+00 9.24e-04 1.39e-01  -6.0 1.61e+01    -  1.00e+00 1.00e+00h  1
 147 -6.2252755e+00 3.51e-05 5.40e-03  -6.0 1.77e+00    -  1.00e+00 1.00e+00h  1
 148 -6.2252755e+00 3.28e-10 4.32e-08  -6.0 4.42e-03    -  1.00e+00 1.00e+00h  1
 149 -6.2253178e+00 3.93e-02 1.48e+02  -7.5 1.18e+02    -  9.19e-01 4.07e-01h  1
iter    objective    inf_pr   inf_du lg(mu)  ||d||  lg(rg) alpha_du alpha_pr  ls
 150 -6.2253564e+00 7.88e-02 2.10e+01  -7.5 7.51e+01    -  1.00e+00 8.78e-01h  1
 151 -6.2253541e+00 7.54e-04 6.69e-02  -7.5 6.56e+00    -  1.00e+00 1.00e+00h  1
 152 -6.2253540e+00 7.46e-10 3.02e-05  -7.5 5.76e-03    -  1.00e+00 1.00e+00h  1
 153 -6.2253540e+00 2.91e-10 3.48e-07  -7.5 1.44e-03    -  1.00e+00 1.00e+00h  1
 154 -6.2253540e+00 2.84e-10 2.16e-12  -7.5 7.91e-07    -  1.00e+00 1.00e+00h  1
 155 -6.2253555e+00 1.81e-04 8.31e-01  -9.0 3.90e+00    -  9.24e-01 8.33e-01h  1
 156 -6.2253557e+00 7.29e-06 3.71e-04  -9.0 6.53e-01    -  1.00e+00 1.00e+00f  1
 157 -6.2253557e+00 2.93e-10 3.93e-09  -9.0 1.15e-04    -  1.00e+00 1.00e+00h  1

Number of Iterations....: 157

                                   (scaled)                 (unscaled)
Objective...............:  -4.8635591666824398e+00   -6.2253557333535232e+00
Dual infeasibility......:   3.9267800415833111e-09    5.0262784532266381e-09
Constraint violation....:   2.9320820662918912e-10    2.9320820662918912e-10
Complementarity.........:   1.2738884135355658e-09    1.6305771693255241e-09
Overall NLP error.......:   3.9267800415833111e-09    5.0262784532266381e-09


Number of objective function evaluations             = 220
Number of objective gradient evaluations             = 158
Number of equality constraint evaluations            = 220
Number of inequality constraint evaluations          = 220
Number of equality constraint Jacobian evaluations   = 161
Number of inequality constraint Jacobian evaluations = 161
Number of Lagrangian Hessian evaluations             = 157
Total CPU secs in IPOPT (w/o function evaluations)   =    573.708
Total CPU secs in NLP function evaluations           =      8.894

EXIT: Optimal Solution Found.
